c File: instances/20_0.25_1.col
c
c Description: Random graph of size 20 vertices and P(0.25) of edges between any two vertices.
p col 20 190
e 1 6
e 1 8
e 1 9
e 1 11
e 1 12
e 2 8
e 2 10
e 2 11
e 2 17
e 3 6
e 3 8
e 3 14
e 3 15
e 3 18
e 4 9
e 4 12
e 4 16
e 4 17
e 5 6
e 5 8
e 5 14
e 6 18
e 6 20
e 7 8
e 7 20
e 8 10
e 8 11
e 8 18
e 8 19
e 9 12
e 9 13
e 9 18
e 9 19
e 10 11
e 11 20
e 12 15
e 12 20
e 13 16
e 13 20
e 14 16
e 15 20
e 16 17